; sanic :: corpus-study/repo_src/sanic/sanic/server/protocols/base_protocol.py :: EVENT 'SanicProtocol._data_received' :: naive encoding (verdict: sat)
; Generated by snf-pipeline (encoder.py) -- run with any
; SMT-LIB2-compliant solver, e.g. `z3 sanic__corpus-study_repo_src_sanic_sanic_server_protocols_base_protocol.py__SanicProtocol._data_received__naive.smt2`
; benchmark generated from python API
(set-info :status unknown)
(declare-fun ewake2_0 () Bool)
(assert
 (let (($x27 (not ewake2_0)))
(or $x27)))
(check-sat)
